in_size = 16;
statements = [ 
"int@A x = 0@A;", 
"int@B y1 = 1@B;",
"int@B y2 = 1@B;", % 3
"if( y1 < 1 ){",
"fun@B(x);",
"fun@A(x);", % 6
"} else {",
"fun@B(y1);",
"fun@A(y1);", % 9
"}",
"midpoint@A();",
"if( y1 < y2 ){", % 12
"fun@B();",
"} else {",
"fun@A();", % 15
"}" ];

statements_roles = [
r(A), r(B), r(B), 
r(B), r(B), r(A), 
NULL, r(B), r(A),
NULL, r(A), r(B),
r(B), NULL, r(A),
NULL];

num_blocks=5;

blocks = [|
0, in_size, 0|
4, 7, 1|
7, 10, 1|
12, 14, 1|
14, 16, 1|];

statements_blocks =[ 
1, 1, 1, 
1, 2, 2, 
2, 3, 3,
3, 1, 1,
4, 4, 5, 
5 ];

num_ifs = 2;

if_blocks = [|
2, 3|
4, 5|];

if_roles = [ B, B ];

roles = {A, B, C};

num_deps = 2;
dependencies = array1d( DEPS, [
  "x", "y1"]); 
dep_from = array1d( DEPS, [
  A, B]); 
dep_to = array1d( DEPS, [
  B, A]); 
dep_def_at = array1d( DEPS, [
  1, 2]);
  
dep_used_at = [|
DEPS[1], 5|
DEPS[2], 9|];














